
<<< setup


<<< generate

CPXPARAM_TimeLimit                               2
Tried aggregator 1 time.
MIP Presolve eliminated 29 rows and 29 columns.
Reduced MIP has 961 rows, 1771 columns, and 5254 nonzeros.
Reduced MIP has 900 binaries, 871 generals, 0 SOSs, and 0 indicators.
Presolve time = 0,00 sec. (2,90 ticks)
Probing fixed 29 vars, tightened 0 bounds.
Probing time = 0,02 sec. (10,57 ticks)
Cover probing fixed 0 vars, tightened 841 bounds.
Tried aggregator 1 time.
MIP Presolve eliminated 31 rows and 59 columns.
MIP Presolve modified 842 coefficients.
Reduced MIP has 930 rows, 1712 columns, and 5106 nonzeros.
Reduced MIP has 871 binaries, 841 generals, 0 SOSs, and 0 indicators.
Presolve time = 0,01 sec. (5,06 ticks)
Probing time = 0,01 sec. (3,17 ticks)
Clique table members: 60.
MIP emphasis: balance optimality and feasibility.
MIP search method: dynamic search.
Parallel mode: deterministic, using up to 4 threads.
Root relaxation solution time = 0,02 sec. (19,61 ticks)

        Nodes                                         Cuts/
   Node  Left     Objective  IInf  Best Integer    Best Bound    ItCnt     Gap

*     0+    0                          114,9064        0,0000           100,00%
      0     0       42,7049    65      114,9064       42,7049      581   62,84%
*     0+    0                           93,5335       42,7049            54,34%
      0     0       43,5915   114       93,5335      Cuts: 54      837   53,39%
      0     0       43,7577   130       93,5335      Cuts: 32      939   53,22%
      0     0       43,9490   126       93,5335      Cuts: 15      985   53,01%
      0     0       43,9509   141       93,5335      Cuts: 10      995   53,01%
      0     0       43,9579   140       93,5335       Cuts: 7     1017   53,00%
      0     0       43,9590   142       93,5335   Flowcuts: 2     1019   53,00%
*     0+    0                           54,8668       43,9590            19,88%
      0     2       43,9590   118       54,8668       44,9012     1019   18,16%
Elapsed time = 0,83 sec. (366,01 ticks, tree = 0,01 MB, solutions = 3)
*    40+    1                           52,9713       44,9012            15,23%
*    90    74      integral     0       47,3572       44,9012     7848    5,19%
    617   307       46,4778    61       47,3572       45,7769    25867    3,34%
*  1292   563      integral     0       47,0701       46,1415    39592    1,97%

Cover cuts applied:  8
Implied bound cuts applied:  76
Flow cuts applied:  45
Mixed integer rounding cuts applied:  11
Lift and project cuts applied:  12
Gomory fractional cuts applied:  6

Root node processing (before b&c):
  Real time             =    0,83 sec. (365,40 ticks)
Parallel b&c, 4 threads:
  Real time             =    1,17 sec. (732,97 ticks)
  Sync time (average)   =    0,15 sec.
  Wait time (average)   =    0,00 sec.
                          ------------
Total (root+branch&cut) =    2,00 sec. (1098,37 ticks)

<<< solve


OBJECTIVE: 47.07014
12/18/2018 23:57:19 110
solving time ~= 2014.906982422
Done
 [[0 0 0 2 0 0 0 0 0 0 0 0 0 0 0 0 0 0 0 0 0 0 0 0 0 0 0 0 0 0]
         [0 0 0 0 30 0 0 0 0 0 0 0 0 0 0 0 0 0 0 0 0 0 0 0 0 0 0 0 0 0]
         [3 0 0 0 0 0 0 0 0 0 0 0 0 0 0 0 0 0 0 0 0 0 0 0 0 0 0 0 0 0]
         [0 1 0 0 0 0 0 0 0 0 0 0 0 0 0 0 0 0 0 0 0 0 0 0 0 0 0 0 0 0]
         [0 0 0 0 0 0 0 0 0 0 29 0 0 0 0 0 0 0 0 0 0 0 0 0 0 0 0 0 0 0]
         [0 0 4 0 0 0 0 0 0 0 0 0 0 0 0 0 0 0 0 0 0 0 0 0 0 0 0 0 0 0]
         [0 0 0 0 0 5 0 0 0 0 0 0 0 0 0 0 0 0 0 0 0 0 0 0 0 0 0 0 0 0]
         [0 0 0 0 0 0 6 0 0 0 0 0 0 0 0 0 0 0 0 0 0 0 0 0 0 0 0 0 0 0]
         [0 0 0 0 0 0 0 7 0 0 0 0 0 0 0 0 0 0 0 0 0 0 0 0 0 0 0 0 0 0]
         [0 0 0 0 0 0 0 0 8 0 0 0 0 0 0 0 0 0 0 0 0 0 0 0 0 0 0 0 0 0]
         [0 0 0 0 0 0 0 0 0 0 0 0 0 28 0 0 0 0 0 0 0 0 0 0 0 0 0 0 0 0]
         [0 0 0 0 0 0 0 0 0 0 0 0 0 0 26 0 0 0 0 0 0 0 0 0 0 0 0 0 0 0]
         [0 0 0 0 0 0 0 0 0 9 0 0 0 0 0 0 0 0 0 0 0 0 0 0 0 0 0 0 0 0]
         [0 0 0 0 0 0 0 0 0 0 0 27 0 0 0 0 0 0 0 0 0 0 0 0 0 0 0 0 0 0]
         [0 0 0 0 0 0 0 0 0 0 0 0 0 0 0 0 25 0 0 0 0 0 0 0 0 0 0 0 0 0]
         [0 0 0 0 0 0 0 0 0 0 0 0 10 0 0 0 0 0 0 0 0 0 0 0 0 0 0 0 0 0]
         [0 0 0 0 0 0 0 0 0 0 0 0 0 0 0 0 0 24 0 0 0 0 0 0 0 0 0 0 0 0]
         [0 0 0 0 0 0 0 0 0 0 0 0 0 0 0 0 0 0 0 23 0 0 0 0 0 0 0 0 0 0]
         [0 0 0 0 0 0 0 0 0 0 0 0 0 0 0 11 0 0 0 0 0 0 0 0 0 0 0 0 0 0]
         [0 0 0 0 0 0 0 0 0 0 0 0 0 0 0 0 0 0 0 0 0 0 0 0 0 0 22 0 0 0]
         [0 0 0 0 0 0 0 0 0 0 0 0 0 0 0 0 0 0 0 0 0 0 16 0 0 0 0 0 0 0]
         [0 0 0 0 0 0 0 0 0 0 0 0 0 0 0 0 0 0 0 0 17 0 0 0 0 0 0 0 0 0]
         [0 0 0 0 0 0 0 0 0 0 0 0 0 0 0 0 0 0 0 0 0 0 0 15 0 0 0 0 0 0]
         [0 0 0 0 0 0 0 0 0 0 0 0 0 0 0 0 0 0 0 0 0 0 0 0 14 0 0 0 0 0]
         [0 0 0 0 0 0 0 0 0 0 0 0 0 0 0 0 0 0 0 0 0 0 0 0 0 13 0 0 0 0]
         [0 0 0 0 0 0 0 0 0 0 0 0 0 0 0 0 0 0 12 0 0 0 0 0 0 0 0 0 0 0]
         [0 0 0 0 0 0 0 0 0 0 0 0 0 0 0 0 0 0 0 0 0 0 0 0 0 0 0 21 0 0]
         [0 0 0 0 0 0 0 0 0 0 0 0 0 0 0 0 0 0 0 0 0 0 0 0 0 0 0 0 20 0]
         [0 0 0 0 0 0 0 0 0 0 0 0 0 0 0 0 0 0 0 0 0 0 0 0 0 0 0 0 0 19]
         [0 0 0 0 0 0 0 0 0 0 0 0 0 0 0 0 0 0 0 0 0 18 0 0 0 0 0 0 0 0]]

<<< post process


<<< done

